
Gurobi 12.0.2 (win64) logging started Mon Nov 10 20:24:50 2025

Set parameter LogFile to value "C:\Ioana\_uni\honours\slp\algorithm\Main_files\results\respiration_paracetamol\Task_002_Sample003_irr_gurobi.log"
Gurobi Optimizer version 12.0.2 build v12.0.2rc0 (win64 - Windows 11.0 (26100.2))

CPU model: Intel(R) Core(TM) Ultra 5 125H, instruction set [SSE2|AVX|AVX2]
Thread count: 14 physical cores, 18 logical processors, using up to 18 threads

Non-default parameters:
TimeLimit  2200

Optimize a model with 47236 rows, 34507 columns and 146717 nonzeros
Model fingerprint: 0x13ec5e56
Variable types: 17258 continuous, 17249 integer (17249 binary)
Coefficient statistics:
  Matrix range     [1e-04, 8e+04]
  Objective range  [1e-04, 1e+01]
  Bounds range     [1e+00, 1e+03]
  RHS range        [1e+00, 1e+00]
Presolve removed 30831 rows and 21554 columns
Presolve time: 0.35s
Presolved: 16405 rows, 12953 columns, 54584 nonzeros
Variable types: 6409 continuous, 6544 integer (6544 binary)

Root relaxation: objective 1.503956e-04, 742 iterations, 0.04 seconds (0.06 work units)

    Nodes    |    Current Node    |     Objective Bounds      |     Work
 Expl Unexpl |  Obj  Depth IntInf | Incumbent    BestBd   Gap | It/Node Time

     0     0    0.00015    0   11          -    0.00015      -     -    0s
H    0     0                       0.1196773    0.00015   100%     -    0s
H    0     0                       0.1053797    0.00015   100%     -    0s
     0     0    0.02268    0   17    0.10538    0.02268  78.5%     -    0s
     0     0    0.02268    0   10    0.10538    0.02268  78.5%     -    0s
     0     0    0.09463    0    6    0.10538    0.09463  10.2%     -    1s
     0     0          -    0         0.10538    0.10538  0.00%     -    1s

Cutting planes:
  Gomory: 1
  Cover: 6
  Implied bound: 1
  MIR: 6
  Flow cover: 4
  Flow path: 5
  Network: 1
  Relax-and-lift: 1

Explored 1 nodes (2730 simplex iterations) in 1.07 seconds (1.09 work units)
Thread count was 18 (of 18 available processors)

Solution count 2: 0.10538 0.119677 

Optimal solution found (tolerance 1.00e-04)
Best objective 1.053797117711e-01, best bound 1.053756663840e-01, gap 0.0038%
